Na Ca Al Mg Fe Si O  H  N  C 
 1.0000000000000000
    14.1516774499618396    0.0000000000000000    0.0000000000000000
     0.0000000000000000   14.1516774499618396    0.0000000000000000
     0.0000000000000000    0.0000000000000000   14.1516774499618396
 Na  Ca  Al  Mg  Fe  Si  O   H   N   C  
   2   4   6  60   8  48 194  16   8   4
Direct
  0.7530519207868518  0.8593092335497755  0.8115209160499174
  0.8162399315876407  0.8153712315485183  0.5728005197494723
  0.7321912129412020  0.4580436369753432  0.3916912292831277
  0.8525563678571239  0.4889333859304394  0.7639684786205231
  0.3242880968242383  0.1192224363771539  0.6880491340767388
  0.2214166965886502  0.5914533677726127  0.8432454211482554
  0.5772718942281785  0.5428254630326231  0.8723575238111132
  0.7509250283107318  0.4584582506156983  0.1724524124439396
  0.1873864106650409  0.3280025788813675  0.1628678641691371
  0.4445597156199102  0.6374259635576215  0.9395621365538139
  0.3922789269527014  0.1588105699995791  0.5072953852685109
  0.6394677847251349  0.1374711266515284  0.5901059495936916
  0.1666029318998850  0.7940053821500732  0.4444108106655565
  0.2861331168632796  0.7063014623817744  1.0038537711503670
  0.6200993960526064  0.5819097926391698  0.2219259956906692
  0.4706743248319010  0.7447979305514160  0.5826607431971208
  0.2040376461363938  0.4037756096112832  0.3777237300860776
  0.9244601461018521  0.4075669647203362  0.0101626637657977
  0.5515328794094831  0.1357880517952577  0.4009706373470581
  0.0930233684562637  0.3861096768681999  0.8854468716674083
  0.1129633803086264  0.4813648515633036  0.6819364774925035
  0.6784259759605482  0.6511996461143084  0.4745466060110473
  0.2798124086483311  0.0327205254832673  0.4429320877252664
  0.3683951835138333  0.8893246397211447  0.0354249922133772
  0.5184537187242890  0.2641678424795719  0.6724100694241575
  0.4261133945092738  0.1049378557487487  0.2587015943501856
  0.7182290604757907  0.2622079356069285  0.3039401090999418
  0.0955595654934764  0.3043222889106064  0.5899800988887324
  0.9670171014199196  0.7753201231157302  0.1991682460296769
  0.6861432211976749  0.1651376357284266  0.9801807721827280
  0.4666401975467938  0.4268269658719754  0.7760507753866323
  0.4746975191199300  0.6881107968046460  0.3750817286383445
  0.7635291170961537  0.4633405523649541  0.9557238410460042
  0.5873123732712643  0.4587826990310486  0.0331550046251496
  0.8842778458909265  0.1866156108577511  0.5333021419696456
  0.2857009456688137  0.3945811836988787  0.7415908569774590
  0.4248626494769746  0.5244794436584848  0.1067104279916772
  0.9735235850529445  0.3475399532145517  0.7282081865269627
  0.3020610646829066  0.8144621756184949  0.8254454762277063
  1.0282092656615822  0.1690457083619966  0.2265082561980113
  0.9336663218008646  0.5450115282823335  0.2848047574840755
  0.6507462336420446  0.8556829448675728  0.4692091333406595
  0.0401313715153167  0.8269566536658411  0.5764493126091300
  0.7043978057105584  0.0251216303681836  0.4079168642907370
  0.5235713219379650  0.5180752498633650  0.6370409357268283
  0.2625023464334246  0.6731938483207002  0.2647895838266069
  0.9592305612987290  0.7834328482982665  0.7862676498601900
  0.6820242750165980  0.0807760741119022  0.2069834655813277
  0.6837156695215910  0.3060667865977891  0.0797058305587950
  0.9946424265963861  0.0259140644423226  0.5718099083568546
  0.8686306980528099  0.5924047801212420  0.0919900284676455
  0.0046656624829509  1.0199144585962860  0.0959760036020226
  0.9875302203667917  0.3705903046351708  0.2110795832868934
  0.0750637450668249  0.7671223169681320  0.8951311408704472
  0.1693302788484562  0.4942957763264256  0.0295248427178675
  0.0783868058431333 -0.0473635277783151  0.2653273435640470
  0.4398492893667027  0.6470518789940658  0.7552019412224504
  0.1316315079227085  0.5959353865585278  0.4855778943026962
  0.9296448186887928  0.8586354454464232  0.0746092994342153
  0.4965971376974462  0.2926041841130784  0.9551712330601932
  0.3901331358402867  0.3124998584467974  0.3329717459582360
  0.4517598329851769  0.7178117722646469  0.1413034438615192
  0.5285807412060061  0.8233974452195703  0.9404246398442352
  0.1976725404404662  0.0998834251529013  0.8964224235998682
  1.0281633743424168  0.4306914117549551  0.4417421883294808
  0.7696247304354328  0.1127367663303896  0.7279314018863301
  0.6533947639015657  0.7285087987838421  0.6774400647513917
  0.9629770149740680  0.9564978144634417  0.8480048769390869
  0.4727283879820663  0.8759667355738088  0.7395633047204890
  0.3682695324992886  0.3182078592281863  0.1251146302930407
  0.7205734962492266  0.3375941862934859  0.6646041152547536
  0.8001733401902008  0.9934159352646912  0.5980976531681684
  0.8690472201182365  0.0860263219706797  0.0100229903372269
  0.5446355410121514  0.0887695493915281  0.0825712183602075
  0.7658630839859438  0.8765263227816329  0.1995002617783117
  0.5484316333586386  0.8688780032379644  0.1790662732253094
  0.5478308577983839  0.9548538528956257  0.3135342049312529
  0.1591444755856404  0.0990605986220539  0.5983026299853182
  0.2639082462275564  0.2587221115489672  0.5419761639068889
  0.6316543759360623  0.7439530129007105  0.3040533355194576
  0.6360876680993558  0.9404973269975095  0.6245804654686753
  0.2120457907560694  0.2472535932466695  0.9823935302642794
  0.3462771653188111  0.4293906931470408  0.5335385351548122
  0.9017965578146988  0.2863765104244876  0.3817719240618295
  0.6395014537880565  0.9782344631871351  0.8303802196559953
  0.1382079558680848  0.8563742878090862  0.1074866690292640
  0.9885376604247316  0.7200314475605181  0.3879938964684458
  0.1686025972308232  0.2530402282520466  0.7454859943679707
  0.7331507989417453  0.7699536732271317  0.0398270319723284
  0.8443966542562981  0.6668312598447135  0.6580596505314509
  0.2448552329527788  0.1937432591671634  0.2755520358190180
  0.4744610552913222  0.9997649646634431  0.5159053313057461
  0.1286123792863697  0.9670150843632532  0.7653008824876489
  0.3776913283081935  0.2127460891317487  0.8447888814979129
  0.1522292251618814  0.7907412046889091  0.7458433909061017
  0.6565465001745255  0.3664617851391808  0.8501541264117051
 -0.0036359836237644  0.6286308048163308  0.7137450394494472
  0.8673563046890392  0.5757703872404482  0.5045916589057005
  0.5400234627755961  0.2407692138051457  0.1648895965519990
  0.1229881062865438  0.5267158263255112  0.2268506585512641
  0.3566012304507233  0.5357393928846187  0.2906401808893047
  0.4036799759502583  0.9908828103393653  0.8616057390603670
  0.3393206632696824  0.8373917170755845  0.4129571548811954
  0.2086407203737570  0.6650634563218606  0.6421824070727197
  0.8658081660135800  0.2464340473983772  0.1445343998140451
  0.5723328195223857  0.1558385734355103  0.8172058493451632
  0.3048068789147328  0.8578170231269668  0.2445545221447433
  0.8689817903835008  0.2960463273908477  0.8713268590296157
  0.3964484452673097  0.1197646422978947  1.0103647492180816
 -0.0136782588662203  0.5580162494202372  0.9053761102796372
  0.0317409992324700  0.2199424833900690  0.0348511948053868
  0.0670999381193873  0.6490388370578298  0.0919004078290873
  0.3279666921406367  0.6312499125921680  0.4892905005585653
  0.5660647814828490  0.3457417380703122  0.4841123294744050
  0.8158456533738563  0.7617682092675723  0.3325805287375982
  0.8972794000860054  0.3932423169448169  0.5582636953149664
  0.9702944656889280  0.1284538344692168  0.7237440938757008
  0.5260326557094115  0.4325459443857148  0.2441157176114119
  0.3304141902384634  0.4465951488132608  0.9571323493029830
  0.8947210676121941  0.9144385783578284  0.4305844812711698
  0.8635769219324050  0.1143844857286494  0.3381150716484169
  0.0640641354653530  0.2328891472859870  0.4278522302341585
  0.2965498401638480  0.9168925910512353  0.6275885448205569
  0.1841452558352200  0.9042877680397703  0.9533421919474717
  0.7133384000628719  0.2691431079410538  0.5023225118888353
  0.2102028252628990  0.0884682461599091  0.1138418528892433
  0.6939486822126761  0.9469605825932446  0.0469197418491800
  0.4997323044790188  0.4983042671383091  0.3974932089570071
  0.1925017653004362  0.9078343453585289  0.2083114194242044
  0.6875723954927804  0.4859836619276536  0.8271179984444076
  0.8437184471422622  0.4021308056580292  0.6566790643754284
  0.3497909976944258  0.4436319967496176  0.3964702891580484
  0.3636836801220745 -0.0117620522952715  0.7560675069606750
  0.5188408316808906  0.0353053366830509  0.8084986591273973
  0.9491331343516107  0.1318078144002733  0.0928763927450434
  0.0834226988037699  0.6113269868947301  0.6283377091541105
  0.4302362877524757  0.7027067471217069  0.0312304046439039
  0.0971976033190547  0.2588399578314493  0.1652298028323791
  0.3327908390247281  0.7789243653879877  0.1695802078658301
  0.3545441917631788  0.6297319272851389  0.6260460438588569
  0.1171162293793847  0.0598319615680521  0.1904559358142966
  0.2566989871535603  0.7756959012694042  0.3334980187062779
  0.8661619702452827  0.8601796166790143  0.2798357976132691
  0.7127935855897549  0.4775928451921865  0.0740292472047099
  0.5492872046293316  0.4181023780761940  0.8870845145652008
  0.2300297107918334  0.8456497495158547  0.0396600162871127
  0.1247065867887228  0.6223222548355340  0.3148917867635754
  0.4099985854718358  0.8138492938067566  0.3303220792170020
  0.3109172666264263  0.9441463580202504  0.3371790447796107
  0.2461488464413265  0.4866238621514050  0.2530936131374655
  0.7573216859152423  0.0452688673598918  1.0018258901340986
  1.0132248324386701  0.2879402875920437  0.3408209556981168
  0.7904860177375835  0.8633757951106062 -0.0127902872338607
  0.3438005512090772  0.2225104436941738 -0.0363519750248478
  0.1893549405185664  0.2299430206418135  0.8696459052586599
  0.3494985671195870  0.4835164102656596  0.8517918955251191
  0.9356876018697867  0.0397861705562501  0.2487063430423435
  0.2712062922255618  0.1301585375765515  0.2052770373750934
  0.0910388648886207  0.9296127269645846  0.5232836116466374
  0.8948203954146202  0.7879761474784444  0.4288601801033038
  0.7575313753854649  0.1253599658082713  0.2957636844044121
  0.0673668063702739  0.4518775929408550  0.2914115219326768
  0.2506455609890466  0.4172942193351273  0.1062695541026202
  0.6744722014244594  0.1585312420813834  0.4623934228068412
  0.7230942203750379  0.7493642511042129  0.2438969255250876
  0.5965119806433918  0.2110818670174379  0.0623079905585633
  0.2736313234733060  0.5357094022198554  0.5171218373955606
  0.8281715952125445  0.6743244184455179  0.5339236182309917
  0.0245736708396038  0.1505635936479779  0.6011484068869524
  0.9500217303223552  0.0991445938131728  0.8240564585583070
  0.6660275561209991  0.0931140566538621  0.8644685366330873
  0.2572735898915091  0.3851580162533763  0.5952532722789469
  0.3558020383169524  0.8273881678914388  0.6614120963351666
  0.8327379146221385  0.7821455690269955  0.1400970838106405
  0.6783015190725065  0.0129483483167256  0.5590043057562764
  0.4948278354086486  0.5390014069572908 -0.0252768240782566
  0.5693458116580503  0.7488525061138172  0.4958072877092003
  0.6438856606115702  0.7367144415753132  0.9715022065102671
  0.6221315814043563  0.9264862527184590  0.9535317625049086
  0.9351833868948445  0.9738207011175412 -0.0041413396330586
  0.8052992850224072  0.1841019769893994  0.8817482566340376
  0.7676295121892314  0.5803816769382725  0.6901771057722269
  0.4758909703229634  0.2531274505814323  0.2618775573719770
  0.0567685117947754  0.8656420641657825  0.7545377047913715
  0.5195662269659463  0.7010319487322898  0.8643416196477871
  0.6149244197900690  0.5902588499167883  0.3560597212416026
  0.8767640025564776  0.0644183848209794  0.6698477502653619
  0.1444594165454921  0.9899330595330194  0.3680275638805627
  0.7614569581663209  0.1963866439359374  0.6027872965190827
  0.6661115291112333  0.3248962507684436  0.4117298128235025
  0.1528274734096219  0.6443672753848240  0.9896921901443605
  0.1012875886117330  0.4304373194956936  0.1571929818204632
  0.8788422175930897  0.4537686850750360  0.1498804682213662
  0.8904987609516929  0.8083446721226013  0.9054895569740253
  0.9705995140813938  0.1567414347443274  0.4002523065407315
  0.5615374215518254  0.9786803701311205  0.4484239405263269
  0.6292922188649773  0.6110243375173421  0.6133632956837550
  0.1775744675869679  0.8143857792332855  0.8726806656215376
  0.6639184413233704  0.3664275406034869  0.9647846442332837
  0.1106652822054300  0.9997430527357299  0.8879056276884153
  0.5443290492674101  0.3512264170750429  0.1242773394133390
  0.5432022880533472  0.7535609486419699  0.2154190233445079
  0.3571201429823766  1.0035369481271788  0.5813313215501377
  0.8623910619903346  0.3752365023589911  0.3323243945070399
  0.2029766659672214  0.0804730995476659  0.7580696917534065
  0.2634201347532532  0.2450199038966809  0.0943601029603669
  0.7915796111292376  0.3353767716092985  0.7978851388383097
  0.4652880840935686  0.5940537803308655  0.4638233345164439
  0.8998417535002582  0.6777416525389055  0.2816851623820296
  0.1028740429512127  0.3067327124164669 -0.0045697625879771
  0.9583733076925457  0.7391141945999724  0.6517648955887282
  0.1373067761254100  0.1404291438791122  0.0234431829180343
  0.1424753303619004  0.9788550069684278  0.0596168142539657
  0.2567497994963990  0.3148244522422862  0.2684393630625430
  0.5493539761264807  0.0674600024949856  0.2831468242479611
  0.4932850991993473  0.8297207297905165  0.0768121419659969
  0.6117330684457283  0.2811572709792180  0.5699303338515155
  0.6664084492454427  0.5599326605942009  0.9542962142997918
  0.3497307732940642  0.5967060615775510  0.1946754027488739
  0.0872158696583212  0.8495483060215108  0.9896490062340026
  0.5786701565137989  0.6359391811751822  0.0920202482965823
  0.5190688964120445  0.7400804088606863  0.7035116266399362
  0.6943388152685508 -0.0062122699149825  0.7232884021963042
  0.8186467830379749  0.2290455363886125  0.4006732220104058
  0.2504831180214112  0.5571433022352816  0.6861556278351583
  0.5407128318789768  0.4091155565533732  0.3474203263920587
  0.9118781108973785  0.2329063833858444  0.6956874344301244
  1.0083223093393385  0.4055074032704656  0.5982179167367655
  0.7824527296127850  0.3087979717444914  0.1775206588211476
  0.4655184828706621  0.4050839494996690  0.5247047805747154
  0.3064994478677052  0.5493665087300954  1.0108639832613817
  0.1846857808527573  0.9709309910261669  0.6257995918430512
  0.0615355187347778  0.2028074629068902  0.7672880587526340
  0.3595488170401783  0.7413576392387287  0.4759566169671746
  0.8296362899642926  0.5670257193459590  0.3931959810430682
  0.3437871027056008  0.0841349173222810  0.8737833366652430
  0.9756349667955243  0.3613685435580952  0.8486811742680954
  0.8339574609604704  0.3239798085682791 -0.0243359515226729
  0.5655679386108605  0.8447649767884843  0.3423923555748810
  0.9184103365390442  0.5805522995204594  0.6089659592643911
  0.5247308047934380  0.9427543756777714  0.6336132948254258
  0.5484487274485976  0.5135516911465788  0.1502135674247112
  0.8927010601107429  0.2127748182243987  0.2570393106122661
  0.8829528074954656  0.8846801888197193  0.7682683649223478
  0.0494146439209751  0.7182565500782752  0.4999869894793976
  0.9126855948343691  0.9059968379235385  0.5630041208168540
  0.8538320547504705  0.6708616299796561  0.9923777584608250
 -0.0077910599089738  0.5563674599479672  0.0336662850649923
  0.1586135149518768  0.3715973972872743  0.7571594432026575
  0.3766782829288164  0.2680482343871092  0.5946593035324506
  0.4354341626683196  0.8900407991589110  0.4900622731447998
  0.7566889961958960  0.5212277824806041  0.5406019518630155
  0.3028777579882956  0.2502586873442548  0.7400658845182119
  0.1822384893624479  0.2320006428359416  0.6304235689741625
  0.1453124319380089  0.4655411620467296  0.4958903087114265
  0.8453396300153241  0.0507426481150723  0.4450658050295550
  0.2387925202792739  0.6877570609042837  0.5333279731496715
  0.3200076365735842  0.6089992738000874  0.3715843884135857
  0.6308602077267863  0.0121339179355298  0.1127353375625257
  0.5931255068117212  0.4606503067859448  0.4855777092240733
  0.1775927079830019  0.5895197825915950  0.1457534695120498
  0.6809678955340893  0.8404816902768225  0.6201109907905218
  0.2277750020788849  0.9018936166743798  0.7553508500266150
  0.1458310649652064  0.7828992427128453  0.6370663486788696
  0.1220692412428357  0.7484529270357991  0.1356782864503043
  0.4799848725101679  0.1686251841060331  0.9138491251356934
  0.6372891950525719  0.1618817432394410  0.7075177549197883
  0.6044795624311466  0.8710625382505535  0.7975065033249352
  0.4626847954220304  0.5727076193347096  0.2991912991057320
  0.0505949488212855  0.0178196708176430  0.7023437644753321
  0.0603152928794556  0.7921335242005988  0.3196119965363170
  0.1675547998120817  0.2904632550101192  0.4871041012684632
  0.9478900152399398  0.3008641193864717  0.0945526234976682
  0.8731189387227301  0.5067743935469904  0.9301117245823354
  0.2814839001116041  0.1349025656076204  0.5497021945701717
  0.0246389876072805  0.8938825529537903  0.1564211989635455
  0.4074720940932027  0.4314473712325407  0.2128418535754416
  0.6201173635443955  0.2549234219652712  0.8452446564839584
  0.3828145450137692  0.4549846297747484  0.6713227715139545
  0.5779887858273491  0.3702210037688775  0.7079260649780675
  0.7237573523091793  0.7424588384645394  0.4055167303885979
  0.4215243160600433  0.0642924938952883  0.4290046520032609
  0.6834034907737074  0.9466427242334660  0.2818538250298084
  0.4037133196693046  0.3295502191021513  0.8428976923378262
  0.4489036866600986  0.0143460536716940  0.9979607904627724
  0.7654499534711156  0.5881747403459211  0.2125142112628608
  0.0792087680367870  0.7117054964877043  0.7840851130445707
  0.4433745321247054  0.8960647342378869  0.8853189571394173
  0.2660634803863305  0.8793151643270148  0.5024124617198612
  0.7931823974644637  1.0006713141041605  0.8616283945698963
  0.9847627851122335  0.6024167053551440  0.3943547572646928
  0.5333725492903918  0.5568709761538448  0.7604173412739239
 -0.0180544345599993  0.9591929589383563  0.3817436213704036
  0.7677111932205436  0.9141116476222809  0.4424180922315620
  0.1018363764187814  0.5127566115066924  0.9248414138555099
  0.2443687260183549  0.7205770891893120  0.7471890071578179
  0.3600732746571466  0.6887528398108042  0.8533255560796215
  0.6686349965119480  0.4320962131746011  0.2455675723298014
  0.0258516552505852  0.5295197377853802  0.7792377345960678
  0.4600218271539163  0.1938682128265438  0.7572333084122970
  0.8121981769463020  0.9859640749685579  0.1503520290319308
  0.8851411494773872  0.6342025016636155  0.7807288046458412
  0.2716424293794210  0.9479031369643991  0.9147070272822287
  0.3341372440274886  0.1679375831083175  0.3571572850095671
  0.7900772644942216  0.1753165193468185  0.1018416489117895
  0.5145099481318531  0.1212705199853357  0.5597021203805924
  0.9301374361808555  0.4750585208981463  0.4842676002959682
  0.7964811688583346  0.7625707572808273  0.7087241171436793
  0.6660165171062372  0.4623490069627296  0.6392126913756312
  0.6187455457246182  0.2121671353821749  0.2364978817320220
  0.7150403868791180  0.6637532531090529  0.0736052673043982
  0.1429268528093348  0.1849259372325368  0.3267784819070596
  0.9815881930577441  0.7261512332754644  0.0772995470917989
  0.3064258274860013  0.2820509729065718  0.4297915412496717
 -0.0114133720265509  0.1869101572663600  0.9395377065043272
  0.9785880796194072  0.6624211881893588  0.8992715706288296
  0.7965995675396945  0.3504463449273210  0.5096946685296929
  0.4077126364257110  0.4049338147388685  0.0276551675258594
  0.2524788980015692  0.3682074938192855  0.9548196243888242
  0.2805796467582138  0.0792556591066818  0.0315668759124345
  0.0121992388579319  0.5889776242125104  0.1914287379717254
  0.4720138221268461  0.2566725830183771  0.4288444081459850
  0.3320517548214952  0.5429719227371587  0.6479953311279795
  0.6620666755370389  0.4984103285801255  0.7488373567867442
  0.8686880386344745  0.1376279153937273  0.8308526889984081
  0.0843802000992672  0.6713353623145684  0.2838272438838499
  0.8077350415191397  0.6173053083739298  0.3476098147494279
  0.7730492093476921  0.0494862474394000  0.9045082083560240
  0.8305274489121721  0.8958392388108384  0.7259664757310396
  0.8713948989475484  0.9495251043490062  0.9734516252256368
  0.7304768963760399  0.6434019326151916  0.2416768040622615
  0.2876529406296783  0.4475240603988699  0.1599768872500470
  0.4927795131749871  0.8546268001287944  0.4890988289201197
  0.1263427357159414  0.4176877074374073  0.5433699384239883
  0.5351942605673827  0.7415706264580444  0.7881070368988795
  0.9396849515878896  0.9360876011304510  0.2612701681018452
  0.0456034241600099  0.1677350389117394  0.8436124462628186
  0.2998220256472258  1.0284170450526964  0.7644266171577145
  0.3747402904096309  0.9686949662584637  0.1573191888701909
  0.6476331125633311  0.8586542130311871  0.1014664798589259
  0.9524772603040469  0.2976670559291290  0.4997910607360805
  0.6774516985556825  0.6594324057877725  0.8060152736806431
  0.4420390347885503  0.1789688620876722  0.1136254838866166
  0.4358053699031016  0.9180721093681486  0.1982877729164128
  0.1269502408532674  0.0906594957018093  0.4827434429024107
  0.7425034839695447  0.6852093315220629  0.8333892034918529
  0.7035588835497281  0.5462166069483526  0.6075787188937816
  0.6505852850845215  0.6453317914237428  1.0178901830870075
  0.8961163506614509  0.7206641006682005  0.9423471565750507
  0.1133465139057130 -0.0036556962590935  0.4537609885751440
Cartesian
 -0.0002444229200000 -0.0107486210000000  0.0069060421000000
 -0.0009965509700000  0.0109998690000000  0.0260978250000000
  0.0082358789000000 -0.0012761428000000 -0.0025570955000000
 -0.0121079280000000  0.0069822026000000 -0.0028413412000000
 -0.0124825850000000 -0.0095177106000000 -0.0084480183000000
  0.0038663217000000 -0.0108250730000000 -0.0197875900000000
  0.0030233394000000 -0.0077299685000000  0.0165372390000000
 -0.0027631628000000  0.0000142912040000  0.0104122920000000
  0.0035684582000000  0.0030085228000000  0.0009515723900000
  0.0006110546500000 -0.0007991430100000  0.0132626470000000
 -0.0035028291000000 -0.0301695460000000 -0.0007317256800000
  0.0107204680000000  0.0019509575000000  0.0057678620000000
 -0.0053556587000000 -0.0111281650000000  0.0068804780000000
  0.0034093074000000 -0.0036132692000000  0.0016254217000000
 -0.0076929012000000 -0.0045135855000000 -0.0058185831000000
 -0.0039690587000000  0.0019081715000000  0.0081580625000000
  0.0018618046000000 -0.0037377103000000 -0.0086063164000000
  0.0166831820000000 -0.0098785277000000  0.0129339700000000
 -0.0067951525000000  0.0030827775000000  0.0063455898000000
  0.0032749953000000  0.0020064803000000  0.0051402912000000
  0.0033693321000000  0.0039885921000000  0.0056618527000000
 -0.0023905568000000 -0.0021286272000000 -0.0114737760000000
 -0.0063154233000000  0.0197042840000000  0.0100463790000000
 -0.0042782928000000  0.0058450880000000 -0.0009868625900000
 -0.0091662813000000 -0.0065775985000000 -0.0004289844500000
  0.0013329457000000 -0.0052435089000000  0.0007152750700000
 -0.0100158650000000 -0.0023244173000000 -0.0030123529000000
  0.0003489780300000  0.0271638990000000  0.0091627999000000
 -0.0146113540000000  0.0004241080300000 -0.0106423810000000
 -0.0015648054000000  0.0034448125000000 -0.0009669141100000
 -0.0048634096000000 -0.0152396130000000  0.0040977950000000
 -0.0165453440000000 -0.0042988570000000  0.0027706439000000
  0.0259282990000000  0.0197987880000000 -0.0083905641000000
  0.0047210981000000 -0.0039224060000000  0.0106275570000000
  0.0231814130000000 -0.0035533373000000 -0.0161980880000000
  0.0035450682000000 -0.0189225580000000 -0.0041547417000000
  0.0027770049000000 -0.0162287670000000 -0.0008297865500000
  0.0060621268000000  0.0215879290000000  0.0003780357100000
  0.0152331020000000  0.0123712300000000  0.0045899218000000
 -0.0052724579000000 -0.0048706915000000  0.0029180884000000
 -0.0156075270000000 -0.0166082090000000  0.0080667397000000
 -0.0046866732000000  0.0243035430000000 -0.0192106490000000
 -0.0005034054500000  0.0076270387000000  0.0040060477000000
 -0.0001357350700000  0.0095241252000000 -0.0246521890000000
  0.0015325934000000  0.0043456387000000  0.0092981841000000
  0.0063116808000000  0.0034279561000000  0.0005787828000000
 -0.0095829674000000 -0.0242268210000000 -0.0052206611000000
 -0.0078558020000000  0.0037691171000000  0.0346983170000000
 -0.0001516366700000 -0.0038907648000000  0.0232573860000000
  0.0189629860000000 -0.0085037850000000  0.0135651720000000
  0.0048012384000000  0.0020915109000000 -0.0084570692000000
 -0.0143359450000000  0.0008865523900000  0.0055543991000000
  0.0098783949000000  0.0032883367000000 -0.0046399918000000
 -0.0117880560000000 -0.0056593939000000 -0.0084373307000000
 -0.0189732630000000  0.0051369662000000  0.0149981610000000
  0.0192111320000000 -0.0098990470000000 -0.0061080717000000
  0.0090258583000000  0.0150159840000000 -0.0041368091000000
 -0.0091343317000000 -0.0136907380000000  0.0141571550000000
 -0.0083041926000000 -0.0050868899000000 -0.0091657404000000
  0.0054167771000000 -0.0099080557000000  0.0030789222000000
 -0.0051957419000000  0.0053264797000000  0.0038526807000000
 -0.0116181810000000 -0.0008059916800000 -0.0011661058000000
  0.0122840880000000  0.0110785940000000 -0.0052866250000000
  0.0084368132000000  0.0171391830000000 -0.0087613916000000
 -0.0019684229000000  0.0002288351800000  0.0026851526000000
 -0.0192828210000000  0.0207586280000000  0.0148185920000000
  0.0188498210000000 -0.0197309270000000  0.0065876648000000
 -0.0183751540000000  0.0081933817000000 -0.0067577293000000
 -0.0115993780000000 -0.0162956210000000  0.0089457612000000
  0.0081292567000000 -0.0015294000000000 -0.0099772784000000
  0.0130318060000000 -0.0210901550000000 -0.0015692427000000
 -0.0045554415000000  0.0029109259000000  0.0068866460000000
  0.0063686777000000 -0.0002066166100000 -0.0045249894000000
  0.0011259471000000 -0.0054150435000000  0.0050940340000000
 -0.0074844303000000 -0.0035367314000000  0.0067893626000000
  0.0063518589000000  0.0061569354000000 -0.0008188372700000
  0.0077525404000000  0.0044788233000000  0.0012907205000000
  0.0049956250000000  0.0055498065000000  0.0011122548000000
 -0.0052992660000000  0.0048288150000000 -0.0039034973000000
 -0.0013884189000000  0.0004278623200000  0.0148145770000000
 -0.0114668080000000  0.0046190633000000  0.0211428720000000
  0.0051749509000000 -0.0185500020000000  0.0178788750000000
  0.0062478794000000  0.0065457490000000  0.0170642980000000
  0.0122787860000000 -0.0142053440000000 -0.0118149320000000
  0.0067327028000000  0.0028959476000000 -0.0087989954000000
  0.0125040320000000 -0.0037119039000000 -0.0067498002000000
 -0.0193581260000000 -0.0082659402000000  0.0043719065000000
  0.0043791742000000  0.0074877736000000 -0.0090918223000000
  0.0066982253000000  0.0080850563000000 -0.0080394315000000
  0.0104969540000000 -0.0104390310000000  0.0018607404000000
  0.0183720390000000 -0.0020811273000000 -0.0077760984000000
  0.0201808030000000 -0.0091785548000000 -0.0080555017000000
 -0.0020699274000000 -0.0023459906000000  0.0023750874000000
 -0.0104328940000000 -0.0004615142100000  0.0103232440000000
 -0.0053117281000000  0.0117101570000000 -0.0007645391100000
  0.0004040869700000  0.0014912200000000  0.0119887450000000
  0.0088542980000000  0.0081274621000000 -0.0000083675542000
 -0.0000285524540000  0.0003120234300000 -0.0110224450000000
  0.0041709145000000 -0.0040568728000000  0.0150335340000000
 -0.0053921908000000 -0.0189334630000000 -0.0235053650000000
  0.0036322562000000 -0.0070499082000000  0.0084552239000000
 -0.0057966448000000 -0.0132752690000000 -0.0177312040000000
 -0.0014467880000000 -0.0032647101000000 -0.0022582686000000
 -0.0172266760000000  0.0046197683000000  0.0009169783700000
  0.0074202500000000 -0.0164650330000000  0.0003838594600000
  0.0108826650000000  0.0150641840000000 -0.0142393660000000
  0.0078240867000000  0.0026906952000000  0.0125689080000000
  0.0057695310000000 -0.0073958999000000 -0.0009215063300000
 -0.0028525245000000  0.0069655008000000  0.0023130232000000
  0.0179951620000000 -0.0126931190000000 -0.0067941693000000
  0.0159755990000000 -0.0102122790000000  0.0227995650000000
  0.0141717500000000  0.0012331973000000  0.0042796573000000
  0.0043693602000000 -0.0030761168000000 -0.0099951703000000
 -0.0002804082700000  0.0071909418000000 -0.0065898346000000
  0.0148699050000000 -0.0057553947000000 -0.0048573927000000
  0.0078930703000000 -0.0180198920000000  0.0107319540000000
 -0.0018369674000000 -0.0077103050000000  0.0003049079300000
 -0.0078142601000000  0.0062830403000000 -0.0021204790000000
  0.0053260495000000 -0.0112095670000000  0.0004629849700000
 -0.0040152744000000 -0.0044930568000000 -0.0003501958800000
 -0.0015189960000000  0.0008408637800000 -0.0037451332000000
 -0.0033656971000000  0.0164480730000000 -0.0079955829000000
  0.0086510768000000  0.0233577320000000 -0.0193220130000000
 -0.0083345098000000 -0.0043654245000000  0.0048661596000000
 -0.0142030740000000 -0.0048966573000000  0.0042464889000000
  0.0031252489000000  0.0009011569400000  0.0005256274600000
 -0.0076599194000000  0.0008592451200000 -0.0047239891000000
 -0.0213280900000000  0.0171190690000000  0.0224526760000000
 -0.0027000571000000 -0.0127977890000000  0.0059942827000000
 -0.0069713516000000 -0.0070808237000000 -0.0028539476000000
 -0.0102610550000000  0.0241023310000000  0.0046278428000000
 -0.0240541360000000 -0.0144118230000000  0.0063403473000000
 -0.0109268530000000  0.0058938722000000  0.0043142431000000
  0.0091729498000000  0.0236254030000000  0.0047691821000000
  0.0037220704000000 -0.0093532157000000  0.0118945820000000
  0.0021560591000000 -0.0001185104200000 -0.0192028080000000
  0.0092046988000000  0.0135230470000000  0.0060338440000000
 -0.0076909976000000  0.0044315551000000  0.0262083200000000
 -0.0113697320000000 -0.0043194070000000  0.0087837246000000
 -0.0120667680000000 -0.0164534430000000 -0.0017986414000000
  0.0048772040000000 -0.0018982952000000 -0.0273830950000000
 -0.0069627439000000 -0.0005652493400000  0.0089623209000000
 -0.0070015526000000 -0.0065315383000000 -0.0063213430000000
  0.0183944250000000 -0.0055768568000000  0.0006463413600000
 -0.0263657380000000 -0.0079446022000000  0.0027056636000000
 -0.0033120760000000 -0.0156586950000000  0.0032997305000000
  0.0158918760000000 -0.0087051585000000 -0.0012440012000000
  0.0049919557000000 -0.0165615210000000 -0.0005329090900000
  0.0067929171000000 -0.0205796710000000 -0.0212936880000000
  0.0052918853000000  0.0066816999000000  0.0019972334000000
  0.0019393566000000 -0.0128744670000000  0.0303645420000000
  0.0071233508000000  0.0081894995000000 -0.0096988002000000
  0.0302330220000000 -0.0154433530000000  0.0079826853000000
 -0.0118554430000000  0.0084190436000000  0.0093309228000000
  0.0055408270000000  0.0019243114000000 -0.0005739501900000
 -0.0202870160000000 -0.0033145500000000  0.0064725957000000
 -0.0083394790000000  0.0108145390000000  0.0232343350000000
 -0.0118892140000000  0.0033671664000000 -0.0155575630000000
  0.0135334460000000 -0.0312125010000000  0.0019093477000000
  0.0060002941000000  0.0082391360000000  0.0209558630000000
  0.0106013860000000 -0.0225212260000000  0.0015158157000000
  0.0195865260000000 -0.0291636350000000 -0.0059012425000000
  0.0017766291000000 -0.0019559214000000  0.0082746625000000
  0.0026579334000000  0.0167655090000000 -0.0064328438000000
  0.0059409410000000 -0.0159418290000000  0.0142834380000000
 -0.0213554290000000 -0.0000681771480000  0.0102553000000000
 -0.0137552440000000 -0.0139489070000000 -0.0076475351000000
  0.0001758683400000  0.0071173948000000 -0.0023428627000000
 -0.0167649930000000 -0.0089426031000000  0.0034082805000000
  0.0024670834000000 -0.0014741079000000  0.0003836721800000
 -0.0143446400000000 -0.0155765760000000 -0.0109288100000000
 -0.0015728344000000 -0.0091114395000000  0.0166372950000000
  0.0348304610000000 -0.0109186170000000  0.0223870340000000
 -0.0065258878000000  0.0241516270000000 -0.0050819087000000
  0.0198153420000000 -0.0094918492000000  0.0057665927000000
 -0.0144249800000000  0.0040695610000000 -0.0006872225700000
 -0.0037503894000000 -0.0024591757000000 -0.0041925509000000
  0.0089631293000000 -0.0011173252000000 -0.0023661553000000
 -0.0144825380000000  0.0012036661000000  0.0157880930000000
  0.0201246730000000  0.0166207310000000 -0.0059570093000000
 -0.0024698565000000  0.0079719198000000  0.0189333810000000
 -0.0299263330000000  0.0062698241000000  0.0013584382000000
  0.0009875001300000  0.0073385043000000  0.0101843270000000
  0.0101808070000000 -0.0002903113300000 -0.0167315310000000
  0.0146524810000000  0.0028931076000000 -0.0143909290000000
 -0.0109619540000000  0.0236696450000000  0.0203719920000000
  0.0299129090000000 -0.0107593520000000  0.0186932020000000
 -0.0006450713500000  0.0058185440000000  0.0090361300000000
 -0.0123935410000000  0.0051106343000000  0.0202800670000000
  0.0022768662000000 -0.0017724196000000  0.0202676130000000
  0.0027402214000000 -0.0328344720000000  0.0309666390000000
 -0.0056326626000000 -0.0015811494000000  0.0151613430000000
 -0.0064011163000000  0.0035598613000000  0.0116616700000000
 -0.0055566984000000  0.0135267490000000 -0.0012903336000000
  0.0039384259000000 -0.0070258210000000 -0.0160300150000000
 -0.0013939972000000  0.0064475002000000  0.0112325300000000
 -0.0040338853000000 -0.0001369012500000 -0.0023035935000000
 -0.0031981525000000  0.0116532590000000  0.0145179380000000
 -0.0041590153000000 -0.0089315160000000  0.0033805479000000
 -0.0156276050000000 -0.0106619370000000  0.0100938330000000
 -0.0242842300000000  0.0109965450000000 -0.0005771402600000
 -0.0085077225000000 -0.0091384149000000 -0.0139512520000000
 -0.0195098970000000  0.0104938710000000 -0.0033735524000000
  0.0055596509000000  0.0171027100000000 -0.0121595810000000
  0.0127958720000000  0.0051759871000000 -0.0056614881000000
 -0.0208182270000000  0.0170486090000000 -0.0156996450000000
  0.0008547903900000  0.0077232263000000  0.0085738871000000
 -0.0262843520000000 -0.0082628722000000 -0.0037837278000000
  0.0060118869000000  0.0069190780000000 -0.0247826850000000
 -0.0117591960000000  0.0170107120000000 -0.0006433244600000
  0.0060817833000000 -0.0122780270000000  0.0151267250000000
 -0.0165929960000000 -0.0156837240000000 -0.0102838910000000
 -0.0143711460000000 -0.0181404210000000 -0.0042506051000000
  0.0040317382000000 -0.0183378210000000 -0.0141867770000000
  0.0008951814400000  0.0148739150000000  0.0093482000000000
  0.0124024830000000  0.0007283004900000 -0.0091294529000000
  0.0120814210000000  0.0079649797000000 -0.0062654476000000
  0.0123772750000000 -0.0163331750000000 -0.0323048020000000
  0.0069759455000000  0.0229850230000000 -0.0013911880000000
 -0.0126504290000000 -0.0085904193000000  0.0014899037000000
  0.0052432527000000  0.0051598578000000 -0.0131083850000000
 -0.0019445825000000  0.0160162030000000  0.0063523696000000
 -0.0050346938000000  0.0218453460000000 -0.0015223376000000
 -0.0040664193000000  0.0097185477000000  0.0185910120000000
  0.0132534290000000  0.0055538188000000 -0.0128271790000000
 -0.0024227672000000  0.0062126585000000 -0.0057211077000000
 -0.0081839258000000 -0.0261817920000000 -0.0001509489400000
 -0.0127657410000000 -0.0239163480000000 -0.0150673140000000
  0.0220366080000000 -0.0196999420000000  0.0028997790000000
 -0.0051810508000000 -0.0038703023000000  0.0011003862000000
 -0.0064042378000000  0.0052607088000000  0.0010490890000000
  0.0150266690000000  0.0098084694000000  0.0063239701000000
  0.0034162492000000 -0.0107857440000000  0.0280675410000000
  0.0040815010000000 -0.0144871810000000 -0.0079786589000000
  0.0043468608000000 -0.0184158730000000  0.0055340117000000
 -0.0110478870000000 -0.0139197900000000 -0.0016323730000000
 -0.0059238789000000  0.0050200796000000  0.0176218100000000
  0.0036262571000000  0.0140741570000000  0.0139122190000000
 -0.0077760468000000  0.0075118157000000 -0.0099645426000000
  0.0049100791000000  0.0094881200000000  0.0195674580000000
  0.0060097424000000 -0.0064325197000000  0.0009528478700000
 -0.0024477625000000 -0.0133155660000000  0.0020898507000000
 -0.0111353350000000 -0.0201680900000000 -0.0051248679000000
  0.0122021090000000  0.0130347510000000 -0.0096432122000000
 -0.0129893480000000  0.0094942655000000  0.0123339930000000
 -0.0172398840000000  0.0165520390000000 -0.0124186580000000
 -0.0091933207000000 -0.0070497675000000 -0.0290532870000000
  0.0047163718000000  0.0045863324000000  0.0015707773000000
 -0.0035264093000000  0.0132740380000000 -0.0114844050000000
 -0.0339268020000000  0.0038861123000000  0.0146736010000000
 -0.0006723137200000  0.0141049870000000 -0.0077135461000000
 -0.0107784470000000 -0.0035280502000000 -0.0127038510000000
  0.0004901741300000  0.0165373420000000 -0.0023872470000000
  0.0080408554000000 -0.0055138407000000  0.0043358924000000
  0.0075246194000000  0.0045045961000000  0.0040544089000000
  0.0056255593000000  0.0270370290000000 -0.0258587050000000
  0.0134150800000000  0.0110466830000000 -0.0064664720000000
  0.0081463501000000 -0.0265803940000000 -0.0035144633000000
 -0.0182747480000000  0.0124324770000000  0.0033252003000000
 -0.0098652054000000 -0.0159472830000000 -0.0135526240000000
 -0.0270303230000000  0.0132546400000000  0.0206061470000000
 -0.0098715577000000 -0.0083928052000000  0.0046214010000000
 -0.0001172370800000  0.0224175780000000  0.0044771362000000
 -0.0003075111500000  0.0026152473000000 -0.0015763828000000
  0.0193461350000000  0.0085068805000000 -0.0004544370800000
  0.0064324214000000 -0.0122812080000000 -0.0088198906000000
  0.0057405796000000  0.0084604124000000  0.0183556870000000
  0.0112857200000000  0.0172680630000000 -0.0067204101000000
  0.0114678840000000  0.0062385032000000 -0.0152310420000000
 -0.0002675804600000 -0.0220239740000000  0.0107644080000000
  0.0054834189000000  0.0061785313000000  0.0035715576000000
  0.0010243554000000  0.0041432389000000  0.0006002627700000
  0.0231112700000000  0.0147717160000000  0.0150687900000000
  0.0013352650000000  0.0024454768000000  0.0211469310000000
  0.0045157365000000 -0.0069281204000000  0.0012466288000000
 -0.0002028891300000  0.0087457313000000  0.0238703110000000
 -0.0215502100000000  0.0241541260000000 -0.0013222814000000
  0.0016197591000000  0.0133118360000000 -0.0057317616000000
  0.0132401410000000  0.0063504837000000 -0.0132712670000000
  0.0039427800000000 -0.0127553960000000 -0.0124709380000000
  0.0070278661000000  0.0197969480000000 -0.0122851420000000
 -0.0110516480000000 -0.0130892400000000 -0.0072393730000000
  0.0133716200000000 -0.0205115650000000 -0.0075448021000000
 -0.0111316640000000  0.0008089050400000 -0.0227567470000000
 -0.0044603962000000  0.0066086967000000  0.0219571980000000
  0.0002104151400000 -0.0270272900000000  0.0206218420000000
  0.0058504664000000 -0.0080958479000000  0.0185184300000000
  0.0103092070000000  0.0082881741000000 -0.0067877831000000
  0.0203610070000000  0.0027194694000000  0.0005457792400000
 -0.0150160960000000  0.0097019254000000 -0.0009212716400000
  0.0271120140000000 -0.0120233550000000 -0.0029145314000000
 -0.0075705154000000 -0.0029832793000000  0.0013546803000000
 -0.0159818000000000  0.0118969110000000  0.0121712680000000
 -0.0233800550000000 -0.0084561109000000 -0.0012465723000000
  0.0199749120000000 -0.0054192316000000  0.0235896390000000
  0.0004034797100000 -0.0003739460100000 -0.0040199575000000
 -0.0063659815000000  0.0095769869000000  0.0017574470000000
  0.0031689771000000  0.0080011819000000  0.0211545460000000
  0.0001234357600000  0.0048870609000000 -0.0094076282000000
 -0.0047378773000000 -0.0189539890000000  0.0041273592000000
  0.0084473672000000 -0.0088280780000000 -0.0002502776600000
  0.0147512760000000 -0.0025129494000000 -0.0034052532000000
 -0.0051090694000000  0.0063090686000000  0.0132145690000000
  0.0041230788000000  0.0059152609000000 -0.0008851245700000
 -0.0080236900000000  0.0148742980000000  0.0067826170000000
  0.0057844953000000 -0.0025969812000000 -0.0066128376000000
 -0.0132382720000000 -0.0002345448300000  0.0022011117000000
  0.0015383425000000 -0.0200221700000000 -0.0121399070000000
 -0.0246764440000000 -0.0089443150000000 -0.0056468269000000
  0.0026459131000000  0.0134383970000000  0.0098340063000000
  0.0086887973000000 -0.0110668800000000 -0.0142682770000000
 -0.0298004800000000 -0.0145414740000000  0.0195298180000000
  0.0057956689000000  0.0320226890000000 -0.0022089805000000
 -0.0196394360000000  0.0064418609000000  0.0001312763600000
  0.0006851341800000 -0.0179501250000000 -0.0162734030000000
 -0.0147878860000000  0.0096818438000000  0.0042372890000000
 -0.0109753560000000 -0.0090557364000000 -0.0298281080000000
  0.0004553167500000  0.0120569350000000 -0.0164057540000000
 -0.0178910170000000  0.0131056770000000 -0.0063477401000000
  0.0180363700000000 -0.0019024463000000 -0.0087888751000000
 -0.0133188500000000  0.0118493810000000  0.0093893771000000
  0.0147276780000000  0.0006259574200000 -0.0030676267000000
  0.0664291710000000  0.0172231640000000  0.0027288241000000
 -0.0083158509000000 -0.0168515910000000  0.0330224100000000
  0.0416546120000000  0.0562360430000000 -0.0262298530000000
  0.0139994140000000  0.0023619580000000 -0.0826173580000000
  0.0248540720000000  0.0469959520000000 -0.0342333240000000
 -0.0346335150000000  0.1201762200000000  0.0005174974200000
  0.0147261520000000  0.0060269786000000  0.0760927860000000
  0.0937115210000000 -0.0859044070000000  0.0140179770000000
 -0.0109698330000000 -0.0035268579000000 -0.0000293556810000
 -0.0017156731000000  0.0787860940000000  0.0167443830000000
 -0.0081099603000000  0.0801946120000000  0.0557498230000000
 -0.0335312000000000 -0.0480432180000000  0.0394371630000000
 -0.1275566800000000 -0.0189125270000000  0.0345332330000000
 -0.0429266600000000 -0.0328087630000000 -0.0249428860000000
  0.0016676001000000 -0.0117566270000000 -0.0003304947200000
 -0.0261289170000000  0.0272627450000000  0.0366309740000000
 -0.0250727460000000  0.0046354635000000  0.0021511055000000
  0.0214932440000000  0.0010203977000000 -0.0043134846000000
  0.0135707580000000 -0.0076790556000000 -0.0053293672000000
 -0.0128671540000000 -0.0094509260000000 -0.0146987670000000
  0.0159427130000000  0.0071611254000000 -0.0058645011000000
  0.0023941637000000 -0.0219144210000000 -0.0243394820000000
 -0.0134277320000000  0.0066817720000000  0.0053158338000000
  0.0087496809000000 -0.0068468638000000  0.0062048303000000
 -0.0076341954000000  0.0345817340000000 -0.0147916260000000
 -0.0011744544000000 -0.0150884680000000  0.0073976302000000
 -0.0084252661000000 -0.0083781031000000 -0.0181561610000000
  0.0000473171270000 -0.0235702640000000 -0.0120094620000000
